c FILE /home/rafael/Documents/HappySet/MIHS/inputs/happygen/output/graph_d_regular_k10_p0.2_v100_20241127_084111.txt
c SOURCE This is a d-regular graph formed for the happy graph colouring problem.
c DESCRIPTION It was generated using the problem generator of Rhyd Lewis
c
c GRAPH STATS
c Seed                             = 1918006212
c Number of Nodes                  = 100
c Number of colours k              = 10
c Number of pre-assignments        = 20
c Degree of all vertices           = 6
c Density                          = 0.0606061
c 
c The degrees of nodes 1 to 100, respectively, are as follows 
c [6, 6, 6, 6, 6, 6, 6, 6, 6, 6, 6, 6, 6, 6, 6, 6, 6, 6, 6, 6, 6, 6, 6, 6, 6, 6, 
c  6, 6, 6, 6, 6, 6, 6, 6, 6, 6, 6, 6, 6, 6, 6, 6, 6, 6, 6, 6, 6, 6, 6, 6, 6, 
c  6, 6, 6, 6, 6, 6, 6, 6, 6, 6, 6, 6, 6, 6, 6, 6, 6, 6, 6, 6, 6, 6, 6, 6, 6, 
c  6, 6, 6, 6, 6, 6, 6, 6, 6, 6, 6, 6, 6, 6, 6, 6, 6, 6, 6, 6, 6, 6, 6, 6] 
c  
p edge 100 300 10
e 1 5
e 1 16
e 1 20
e 1 27
e 1 62
e 1 85
e 2 6
e 2 17
e 2 19
e 2 28
e 2 30
e 2 58
e 3 14
e 3 32
e 3 38
e 3 52
e 3 57
e 3 86
e 4 9
e 4 27
e 4 35
e 4 46
e 4 49
e 4 52
e 5 6
e 5 54
e 5 56
e 5 66
e 5 99
e 6 17
e 6 22
e 6 51
e 6 66
e 7 12
e 7 20
e 7 28
e 7 48
e 7 56
e 7 88
e 8 39
e 8 59
e 8 67
e 8 74
e 8 88
e 8 90
e 9 15
e 9 26
e 9 58
e 9 63
e 9 68
e 10 25
e 10 31
e 10 50
e 10 73
e 10 78
e 10 92
e 11 22
e 11 60
e 11 71
e 11 79
e 11 82
e 11 89
e 12 23
e 12 35
e 12 43
e 12 48
e 12 56
e 13 15
e 13 52
e 13 55
e 13 60
e 13 69
e 13 99
e 14 16
e 14 36
e 14 42
e 14 44
e 14 76
e 15 24
e 15 43
e 15 90
e 15 98
e 16 47
e 16 59
e 16 60
e 16 62
e 17 21
e 17 36
e 17 70
e 17 72
e 18 19
e 18 25
e 18 62
e 18 63
e 18 91
e 18 95
e 19 20
e 19 23
e 19 46
e 19 79
e 20 30
e 20 55
e 20 84
e 21 36
e 21 65
e 21 92
e 21 94
e 21 96
e 22 23
e 22 34
e 22 51
e 22 90
e 23 30
e 23 33
e 23 66
e 24 40
e 24 70
e 24 75
e 24 79
e 24 83
e 25 34
e 25 72
e 25 84
e 25 93
e 26 42
e 26 46
e 26 55
e 26 81
e 26 92
e 27 41
e 27 57
e 27 89
e 27 100
e 28 31
e 28 74
e 28 97
e 28 100
e 29 51
e 29 52
e 29 57
e 29 61
e 29 69
e 29 93
e 30 67
e 30 76
e 30 80
e 31 61
e 31 69
e 31 83
e 31 88
e 32 33
e 32 46
e 32 59
e 32 80
e 32 86
e 33 41
e 33 46
e 33 58
e 33 77
e 34 71
e 34 87
e 34 95
e 34 99
e 35 42
e 35 44
e 35 48
e 35 55
e 36 57
e 36 70
e 36 94
e 37 53
e 37 64
e 37 67
e 37 88
e 37 91
e 37 96
e 38 49
e 38 65
e 38 79
e 38 81
e 38 97
e 39 47
e 39 82
e 39 87
e 39 91
e 39 100
e 40 50
e 40 62
e 40 86
e 40 98
e 40 99
e 41 49
e 41 67
e 41 69
e 41 70
e 42 61
e 42 83
e 42 90
e 43 68
e 43 78
e 43 87
e 43 89
e 44 45
e 44 71
e 44 82
e 44 87
e 45 67
e 45 68
e 45 78
e 45 84
e 45 89
e 46 63
e 47 60
e 47 74
e 47 81
e 47 90
e 48 72
e 48 93
e 48 100
e 49 76
e 49 93
e 49 99
e 50 51
e 50 75
e 50 80
e 50 97
e 51 64
e 51 73
e 52 64
e 52 95
e 53 62
e 53 76
e 53 91
e 53 96
e 53 97
e 54 60
e 54 72
e 54 73
e 54 77
e 54 86
e 55 58
e 55 96
e 56 65
e 56 66
e 56 67
e 57 61
e 57 66
e 58 65
e 58 78
e 59 79
e 59 81
e 59 89
e 60 70
e 61 63
e 61 92
e 62 73
e 63 77
e 63 94
e 64 71
e 64 76
e 64 86
e 65 83
e 65 97
e 66 99
e 68 71
e 68 95
e 68 100
e 69 91
e 69 97
e 70 72
e 71 100
e 72 92
e 73 83
e 73 98
e 74 75
e 74 96
e 74 98
e 75 82
e 75 84
e 75 88
e 76 80
e 77 84
e 77 85
e 77 94
e 78 93
e 78 98
e 79 95
e 80 81
e 80 83
e 81 94
e 82 88
e 82 91
e 84 85
e 85 87
e 85 92
e 85 93
e 86 98
e 87 89
e 90 95
e 94 96
n 1 7
n 15 9
n 20 7
n 21 2
n 42 10
n 44 5
n 56 4
n 57 1
n 59 6
n 60 8
n 63 3
n 64 2
n 72 3
n 74 2
n 79 6
n 80 6
n 81 6
n 93 8
n 95 6
n 96 2
